Route #1: 213 132 153 169 194 83 203 39 82 196 182 181 5 174 168 65 133 96 98 52
Route #2: 189 188 102 87 81 44 25 22 201 137 28 59 41 207 206 197 110 46 104 208 105 101
Route #3: 180 55 131 100 121 43 84 204 29 177 165 115 127 80 179 134 162 183 74 86 19 85 23
Route #4: 68 72 112 6 76 126 42 62 18 17 175 11 51 176 171 173 34 114 91 93 143
Route #5: 57 99 95 63 79 75 15 45 94 54 53 50 49 136 161 10 212 198 209 202 129 2
Route #6: 210 157 164 152 149 154 21 146 140 172 36 135 27 24 77 71 120 119 116 139 138 159 158 145 26 214 184
Route #7: 118 66 14 130 124 103 142 20 69 160 211 92 147 178 200 185 191 192 166 78 56 47 33 7 8 195
Route #8: 90 144 12 31 123 88 205 167 155 125 37 38 113 156 190 89 107 122 13
Route #9: 106 64 73 148 186 60 109 187 111 32 170 35 16 163 117 108 3 151 150 70 9 30 128 193
Route #10: 97 141 40 58 61 199 48 1 67 4
cost: 67614
